analyze/results_flowersnark/final_miplib_symretope_if_extended_generating_set_cpx_v802__settings_final_nopeek_norelabel_extend_norestarts__2__mspp16.mps.gz.out
FILENAME:   /home/mcs001/s132664/testsets/IP/miplib2010/mspp16.mps.gz
SETTINGS:   settings_final_nopeek_norelabel_extend_norestarts
TIMELIMIT:  7200
OUTPUTNAME: final_miplib_symretope_if_extended_generating_set_cpx_v802__settings_final_nopeek_norelabel_extend_norestarts__2__
BINNAME:    bin/sbcs.linux.x86_64.gnu.opt.cpx
BASENAME:   mspp16.mps.gz
SEED:       2
@01 /home/mcs001/s132664/testsets/IP/miplib2010/mspp16.mps.gz ===========
@02 mspp16.mps.gz
@03 1686656578
SCIP version 8.0.2 [precision: 8 byte] [memory: block] [mode: optimized] [LP solver: CPLEX 20.1.0.0] [GitHash: 5f0473c]
Copyright (C) 2002-2022 Konrad-Zuse-Zentrum fuer Informationstechnik Berlin (ZIB)

Symretope propagation methods - (c) Jasper van Doornmalen, Christopher Hojny.
[GitHash: 2fd0484]

reading parameter file <../settings/settings_final_nopeek_norelabel_extend_norestarts.set> ...

Changed settings:
limits/time = 7200
limits/restarts = 0
misc/usesymmetry = 1
randomization/randomseedshift = 2
constraints/orbisack/sepafreq = -1
constraints/symresack/sepafreq = -1
propagating/symmetry/addsymresacks = TRUE
propagating/symmetry/detectsubgroups = FALSE
propagating/symmetry/relabelsymretopes = 0
propagating/symmetry/extendgenerators = TRUE
propagating/symmetry/ofsymcomptiming = 0
constraints/symretope/sepafreq = -1
constraints/symretope/peek = FALSE


solving problem ...

original problem has 29280 variables (29280 bin, 0 int, 0 impl, 0 cont) and 561657 constraints
presolving:
(round 1, fast)       25215 del vars, 36781 del conss, 0 add conss, 25215 chg bounds, 991 chg sides, 0 chg coeffs, 0 upgd conss, 0 impls, 1726 clqs
(round 2, exhaustive) 25215 del vars, 36843 del conss, 0 add conss, 25215 chg bounds, 991 chg sides, 0 chg coeffs, 524798 upgd conss, 0 impls, 1726 clqs
(round 3, medium)     25215 del vars, 37053 del conss, 210 add conss, 25215 chg bounds, 1201 chg sides, 3360 chg coeffs, 524798 upgd conss, 0 impls, 1935 clqs
   (55.3s) sparsify aborted: 480/27555495 (0.0%) nonzeros canceled - in total 480 canceled nonzeros, 480 changed coefficients, 0 added nonzeros
   (70.4s) probing: 51/4065 (1.3%) - 0 fixings, 0 aggregations, 0 implications, 0 bound changes
   (70.4s) probing aborted: 50/50 successive totally useless probings
   (76.6s) symmetry computation started: requiring (bin +, int +, cont +), (fixed: bin -, int -, cont -)
   (252.1s) symmetry computation finished: 39 generators found (max: 1500, log10 of symmetry group size: 34.3)
(round 4, exhaustive) 25215 del vars, 37053 del conss, 638 add conss, 25215 chg bounds, 1201 chg sides, 4080 chg coeffs, 524798 upgd conss, 0 impls, 1935 clqs
presolving (5 rounds: 5 fast, 4 medium, 3 exhaustive):
 25215 deleted vars, 37053 deleted constraints, 638 added constraints, 25215 tightened bounds, 0 added holes, 1217 changed sides, 4320 changed coefficients
 0 implications, 1935 cliques
presolved problem has 4065 variables (4065 bin, 0 int, 0 impl, 0 cont) and 525242 constraints
 522878 constraints of type <knapsack>
   1936 constraints of type <setppc>
    391 constraints of type <orbisack>
     37 constraints of type <symretope>
transformed objective value is always integral (scale: 11)
Presolving Time: 249.95

 time | node  | left  |LP iter|LP it/n|mem/heur|mdpt |vars |cons |rows |cuts |sepa|confs|strbr|  dualbound   | primalbound  |  gap   | compl. 
  393s|     1 |     0 |    14 |     - |    13G |   0 |4065 | 525k| 525k|   0 |  0 |  42 |   0 | 3.410000e+02 |      --      |    Inf | unknown
  483s|     1 |     0 |   145 |     - |    13G |   0 |4065 | 525k| 525k|   3 |  1 |  42 |   0 | 3.410000e+02 |      --      |    Inf | unknown
  487s|     1 |     0 |   155 |     - |    13G |   0 |4065 | 525k| 525k|   6 |  2 |  43 |   0 | 3.410000e+02 |      --      |    Inf | unknown
  492s|     1 |     0 |   169 |     - |    13G |   0 |4065 | 525k| 525k|   9 |  3 |  43 |   0 | 3.410000e+02 |      --      |    Inf | unknown
r 492s|     1 |     0 |   169 |     - |shifting|   0 |4065 | 525k| 525k|   9 |  3 |  45 |   0 | 3.410000e+02 | 3.740000e+02 |   9.68%| unknown
  497s|     1 |     0 |   199 |     - |    13G |   0 |4065 | 525k| 525k|  15 |  4 |  45 |   0 | 3.410000e+02 | 3.740000e+02 |   9.68%| unknown
  503s|     1 |     0 |   231 |     - |    13G |   0 |4065 | 525k| 525k|  21 |  5 |  45 |   0 | 3.410000e+02 | 3.740000e+02 |   9.68%| unknown
  510s|     1 |     0 |   259 |     - |    13G |   0 |4065 | 525k| 525k|  28 |  6 |  45 |   0 | 3.410000e+02 | 3.740000e+02 |   9.68%| unknown
  515s|     1 |     0 |   297 |     - |    13G |   0 |4065 | 525k| 525k|  35 |  7 |  45 |   0 | 3.410000e+02 | 3.740000e+02 |   9.68%| unknown
  520s|     1 |     0 |   339 |     - |    14G |   0 |4065 | 525k| 525k|  43 |  8 |  45 |   0 | 3.410000e+02 | 3.740000e+02 |   9.68%| unknown
  525s|     1 |     0 |   371 |     - |    14G |   0 |4065 | 525k| 525k|  52 |  9 |  45 |   0 | 3.410000e+02 | 3.740000e+02 |   9.68%| unknown
  530s|     1 |     0 |   432 |     - |    14G |   0 |4065 | 525k| 525k|  61 | 10 |  47 |   0 | 3.410000e+02 | 3.740000e+02 |   9.68%| unknown
  540s|     1 |     0 |   632 |     - |    14G |   0 |4065 | 525k| 525k|  67 | 11 |  48 |   0 | 3.410000e+02 | 3.740000e+02 |   9.68%| unknown
  557s|     1 |     0 |   779 |     - |    14G |   0 |4065 | 525k| 524k|  76 | 12 |  50 |   0 | 3.410000e+02 | 3.740000e+02 |   9.68%| unknown
  567s|     1 |     0 |   916 |     - |    14G |   0 |4065 | 525k| 524k|  85 | 13 |  51 |   0 | 3.410000e+02 | 3.740000e+02 |   9.68%| unknown
 time | node  | left  |LP iter|LP it/n|mem/heur|mdpt |vars |cons |rows |cuts |sepa|confs|strbr|  dualbound   | primalbound  |  gap   | compl. 
r 570s|     1 |     0 |   916 |     - |shifting|   0 |4065 | 525k| 524k|  85 | 13 |  51 |   0 | 3.410000e+02 | 3.630000e+02 |   6.45%| unknown
  574s|     1 |     0 |  1091 |     - |    14G |   0 |4065 | 525k| 524k|  91 | 14 |  51 |   0 | 3.410000e+02 | 3.630000e+02 |   6.45%| unknown
  579s|     1 |     0 |  1091 |     - |    14G |   0 |4065 | 525k| 524k|  91 | 14 |  54 |   0 | 3.410000e+02 | 3.630000e+02 |   6.45%| unknown
  582s|     1 |     0 |  1153 |     - |    14G |   0 |4065 | 525k| 524k|  91 | 14 |  54 |   0 | 3.410000e+02 | 3.630000e+02 |   6.45%| unknown
  600s|     1 |     0 |  1228 |     - |    14G |   0 |4065 | 525k| 524k|  96 | 15 |  55 |   0 | 3.410000e+02 | 3.630000e+02 |   6.45%| unknown
  608s|     1 |     0 |  1301 |     - |    14G |   0 |4065 | 525k| 524k|  96 | 15 |  56 |   0 | 3.410000e+02 | 3.630000e+02 |   6.45%| unknown
  614s|     1 |     0 |  1466 |     - |    14G |   0 |4065 | 525k| 524k| 100 | 16 |  57 |   0 | 3.410000e+02 | 3.630000e+02 |   6.45%| unknown
  619s|     1 |     0 |  1466 |     - |    14G |   0 |4065 | 525k| 524k| 100 | 16 |  60 |   0 | 3.410000e+02 | 3.630000e+02 |   6.45%| unknown
  625s|     1 |     0 |  1599 |     - |    14G |   0 |4065 | 525k| 524k| 103 | 17 |  60 |   0 | 3.410000e+02 | 3.630000e+02 |   6.45%| unknown
  632s|     1 |     0 |  1661 |     - |    14G |   0 |4065 | 525k| 524k| 106 | 18 |  61 |   0 | 3.410000e+02 | 3.630000e+02 |   6.45%| unknown
  637s|     1 |     0 |  1846 |     - |    14G |   0 |4065 | 525k| 524k| 110 | 19 |  62 |   0 | 3.410000e+02 | 3.630000e+02 |   6.45%| unknown
  643s|     1 |     0 |  1846 |     - |    14G |   0 |4065 | 525k| 524k| 110 | 19 |  63 |   0 | 3.410000e+02 | 3.630000e+02 |   6.45%| unknown
  647s|     1 |     0 |  1972 |     - |    14G |   0 |4065 | 525k| 524k| 113 | 20 |  63 |   0 | 3.410000e+02 | 3.630000e+02 |   6.45%| unknown
  924s|     1 |     0 |  2073 |     - |    14G |   0 |4065 | 525k| 524k| 113 | 22 |  78 |  37 | 3.413063e+02 | 3.630000e+02 |   6.36%| unknown
  929s|     1 |     0 |  2123 |     - |    14G |   0 |4065 | 525k| 524k| 114 | 23 |  80 |  37 | 3.413063e+02 | 3.630000e+02 |   6.36%| unknown
 time | node  | left  |LP iter|LP it/n|mem/heur|mdpt |vars |cons |rows |cuts |sepa|confs|strbr|  dualbound   | primalbound  |  gap   | compl. 
  947s|     1 |     0 |  2123 |     - |    14G |   0 |4065 | 525k|  33k| 114 | 23 |  83 |  37 | 3.413063e+02 | 3.630000e+02 |   6.36%| unknown
  947s|     1 |     0 |  2130 |     - |    14G |   0 |4065 | 525k|  33k| 116 | 24 |  83 |  37 | 3.413063e+02 | 3.630000e+02 |   6.36%| unknown
  950s|     1 |     0 |  2130 |     - |    14G |   0 |4065 |  33k|  33k| 116 | 24 |  84 |  37 | 3.413063e+02 | 3.630000e+02 |   6.36%| unknown
  950s|     1 |     0 |  2137 |     - |    14G |   0 |4065 |  33k|  33k| 119 | 25 |  84 |  37 | 3.413063e+02 | 3.630000e+02 |   6.36%| unknown
  951s|     1 |     0 |  2204 |     - |    14G |   0 |4065 |  33k|  33k| 122 | 26 |  85 |  37 | 3.416183e+02 | 3.630000e+02 |   6.26%| unknown
  957s|     1 |     2 |  2204 |     - |    14G |   0 |4065 |  33k|  33k| 122 | 26 |  87 |  52 | 3.428548e+02 | 3.630000e+02 |   5.88%| unknown

SCIP Status        : problem is solved [optimal solution found]
Solving Time (sec) : 1002.73
Solving Nodes      : 5
Primal Bound       : +3.63000000000000e+02 (19 solutions)
Dual Bound         : +3.63000000000000e+02
Gap                : 0.00 %
SCIP Status        : problem is solved [optimal solution found]
Total Time         :    1039.88
  solving          :    1002.73
  presolving       :     249.95 (included in solving)
  reading          :      37.15
  copying          :       5.05 (2 #copies) (minimal 2.44, maximal 2.62, average 2.53)
Original Problem   :
  Problem name     : mspp16
  Variables        : 29280 (29280 binary, 0 integer, 0 implicit integer, 0 continuous)
  Constraints      : 561657 initial, 561657 maximal
  Objective        : minimize, 4065 non-zeros (abs.min = 11, abs.max = 11)
Presolved Problem  :
  Problem name     : t_mspp16
  Variables        : 4065 (4065 binary, 0 integer, 0 implicit integer, 0 continuous)
  Constraints      : 525242 initial, 525291 maximal
  Objective        : minimize, 3585 non-zeros (abs.min = 1, abs.max = 1)
  Nonzeros         : 28060559 constraint, 624 clique table
Presolvers         :   ExecTime  SetupTime  Calls  FixedVars   AggrVars   ChgTypes  ChgBounds   AddHoles    DelCons    AddCons   ChgSides   ChgCoefs
  boundshift       :       0.00       0.00      0          0          0          0          0          0          0          0          0          0
  convertinttobin  :       0.00       0.00      0          0          0          0          0          0          0          0          0          0
  domcol           :       2.75       0.00      2          0          0          0          0          0          0          0          0          0
  dualagg          :       0.00       0.00      0          0          0          0          0          0          0          0          0          0
  dualcomp         :       0.00       0.00      0          0          0          0          0          0          0          0          0          0
  dualinfer        :       0.00       0.00      0          0          0          0          0          0          0          0          0          0
  dualsparsify     :       6.16       0.00      1          0          0          0          0          0          0          0          0          0
  gateextraction   :       0.00       0.00      0          0          0          0          0          0          0          0          0          0
  implics          :       0.00       0.00      4          0          0          0          0          0          0          0          0          0
  inttobinary      :       0.00       0.00      0          0          0          0          0          0          0          0          0          0
  qpkktref         :       0.00       0.00      0          0          0          0          0          0          0          0          0          0
  redvub           :       0.00       0.00      0          0          0          0          0          0          0          0          0          0
  sparsify         :       4.35       0.00      2          0          0          0          0          0          0          0          0        480
  stuffing         :       0.00       0.00      0          0          0          0          0          0          0          0          0          0
  trivial          :       0.00       0.00      5          0          0          0          0          0          0          0          0          0
  tworowbnd        :       0.00       0.00      0          0          0          0          0          0          0          0          0          0
  dualfix          :       0.00       0.00      5          0          0          0          0          0          0          0          0          0
  genvbounds       :       0.00       0.00      0          0          0          0          0          0          0          0          0          0
  probing          :      15.07       0.00      1          0          0          0          0          0          0          0          0          0
  pseudoobj        :       0.00       0.00      0          0          0          0          0          0          0          0          0          0
  symmetry         :     175.74       0.00      1          0          0          0          0          0          0        428          0          0
  vbounds          :       0.00       0.00      2          0          0          0          0          0          0          0          0          0
  knapsack         :      25.83       0.28      8          0          0          0          0          0        210        210        210       3840
  setppc           :       0.01       0.00      8          0          0          0          0          0          0          0          0          0
  linear           :      14.11       5.41      8      25215          0          0      25215          0      36843          0       1007          0
  orbisack         :       0.00       0.00      1          0          0          0          0          0          0          0          0          0
  symretope        :       0.00       0.00      1          0          0          0          0          0          0          0          0          0
  logicor          :       0.00       0.00      0          0          0          0          0          0          0          0          0          0
  benders          :       0.00       0.00      0          0          0          0          0          0          0          0          0          0
  components       :       2.68       0.00      1          0          0          0          0          0          0          0          0          0
  root node        :          -          -      -       4026          -          -       4026          -          -          -          -          -
Constraints        :     Number  MaxNumber  #Separate #Propagate    #EnfoLP    #EnfoRelax  #EnfoPS    #Check   #ResProp    Cutoffs    DomReds       Cuts    Applied      Conss   Children
  benderslp        :          0          0          0          0         37          0          0         35          0          0          0          0          0          0          0
  integral         :          0          0          0          0         37          0          0         35          0          0        121          0          0        147          4
  knapsack         :     522878+    522880         23       5603          0          0          0         30       1427         39        951        216         12          0          0
  setppc           :       1936+      1958         23       5564          0          0          0         20       1702          4         37          1          0          0          0
  linear           :          0+        55          0        732          0          0          0          0        473         68        124          0          0          0          0
  orbisack         :        391        391          0        119          0          0          0         19       2914         26          9          0          0          0          0
  symretope        :         37         37          0        193          0          0          0         19        219          3          2          0          0          0          0
  logicor          :          0+        66         23        507          0          0          0          0          9          4          0          8          5          0          0
  benders          :          0          0          0          0          0          0          0         20          0          0          0          0          0          0          0
  countsols        :          0          0          0          0          0          0          0         20          0          0          0          0          0          0          0
  components       :          0          0          0          0          0          0          0          0          0          0          0          0          0          0          0
Constraint Timings :  TotalTime  SetupTime   Separate  Propagate     EnfoLP     EnfoPS     EnfoRelax   Check    ResProp    SB-Prop
  benderslp        :       0.00       0.00       0.00       0.00       0.00       0.00       0.00       0.00       0.00       0.00
  integral         :     293.78       0.00       0.00       0.00     293.77       0.00       0.00       0.01       0.00       0.00
  knapsack         :     112.10       0.28      22.88      68.43       0.00       0.00       0.00      10.18       0.00      10.33
  setppc           :      20.30       0.00       0.01      18.31       0.00       0.00       0.00       0.01       0.00       1.97
  linear           :      13.60       5.41       0.00       0.51       0.00       0.00       0.00       0.00       0.00       7.69
  orbisack         :       8.18       0.00       0.00       8.13       0.00       0.00       0.00       0.00       0.05       0.00
  symretope        :       0.27       0.00       0.00       0.27       0.00       0.00       0.00       0.00       0.00       0.00
  logicor          :       0.03       0.00       0.00       0.00       0.00       0.00       0.00       0.00       0.00       0.03
  benders          :       0.00       0.00       0.00       0.00       0.00       0.00       0.00       0.00       0.00       0.00
  countsols        :       0.00       0.00       0.00       0.00       0.00       0.00       0.00       0.00       0.00       0.00
  components       :       0.00       0.00       0.00       0.00       0.00       0.00       0.00       0.00       0.00       0.00
Propagators        : #Propagate   #ResProp    Cutoffs    DomReds
  dualfix          :          7          0          0          0
  genvbounds       :          0          0          0          0
  nlobbt           :          0          0          0          0
  obbt             :          0          0          0          0
  probing          :          0          0          0          0
  pseudoobj        :        164          0          0          0
  redcost          :        112          0          0       3467
  rootredcost      :          1          0          0          0
  symmetry         :          0          0          0          0
  vbounds          :        579          0          0          0
Propagator Timings :  TotalTime  SetupTime   Presolve  Propagate    ResProp    SB-Prop
  dualfix          :       0.00       0.00       0.00       0.00       0.00       0.00
  genvbounds       :       0.00       0.00       0.00       0.00       0.00       0.00
  nlobbt           :       0.00       0.00       0.00       0.00       0.00       0.00
  obbt             :       0.00       0.00       0.00       0.00       0.00       0.00
  probing          :      15.07       0.00      15.07       0.00       0.00       0.00
  pseudoobj        :       0.01       0.00       0.00       0.01       0.00       0.00
  redcost          :      12.26       0.00       0.00      12.26       0.00       0.00
  rootredcost      :       0.00       0.00       0.00       0.00       0.00       0.00
  symmetry         :     175.75       0.00     175.74       0.00       0.00       0.00
  vbounds          :       0.01       0.00       0.00       0.01       0.00       0.00
Orbital fixing     :
  vars fixed to 0  :          0
  vars fixed to 1  :          0
Conflict Analysis  :       Time      Calls    Success    DomReds  Conflicts   Literals    Reconvs ReconvLits   Dualrays   Nonzeros   LP Iters   (pool size: [10000,10000])
  propagation      :       0.07         92         82          -        239      526.7         10        4.0          -          -          -
  infeasible LP    :       0.01          4          5          -          4        1.2          0        0.0          5      164.2          0
  bound exceed. LP :       8.45         68         68          -         91        4.1          1        2.0         66       52.2        499
  strong branching :       0.00          0          0          -          0        0.0          0        0.0          -          -          0
  pseudo solution  :       0.00          0          0          -          0        0.0          0        0.0          -          -          -
  applied globally :       0.00          -          -          1        207       21.3          -          -         71          -          -
  applied locally  :          -          -          -          0          0        0.0          -          -          0          -          -
Separators         :   ExecTime  SetupTime      Calls  RootCalls    Cutoffs    DomReds  FoundCuts ViaPoolAdd  DirectAdd    Applied ViaPoolApp  DirectApp      Conss
  cut pool         :       0.01          -         46         46          -          -        659        332          -          -          -          -          -    (maximal pool size:        659)
  aggregation      :       3.84       0.00         23         23          0          0        254        228          0         95         95          0          0
  > cmir           :          -          -          -          -          -          -          -         67          0         36         36          0          -
  > flowcover      :          -          -          -          -          -          -          -         45          0          1          1          0          -
  > knapsackcover  :          -          -          -          -          -          -          -        116          0         58         58          0          -
  cgmip            :       0.00       0.00          0          0          0          0          0          0          0          0          0          0          0
  clique           :       0.02       0.00         23         23          0          0          0          0          0          0          0          0          0
  closecuts        :       0.00       0.00          0          0          0          0          0          0          0          0          0          0          0
  convexproj       :       0.00       0.00          0          0          0          0          0          0          0          0          0          0          0
  disjunctive      :       0.00       0.00          0          0          0          0          0          0          0          0          0          0          0
  eccuts           :       0.00       0.00          0          0          0          0          0          0          0          0          0          0          0
  gauge            :       0.00       0.00          0          0          0          0          0          0          0          0          0          0          0
  gomory           :       5.13       0.00         10         10          0          0        379         90          0          8          8          0          0
  > gomorymi       :          -          -          -          -          -          -          -         47          0          2          2          0          -
  > strongcg       :          -          -          -          -          -          -          -         43          0          6          6          0          -
  impliedbounds    :      14.61       0.00         23         23          0          0          1          1          0          1          1          0          0
  interminor       :       0.00       0.00          0          0          0          0          0          0          0          0          0          0          0
  intobj           :       0.00       0.00          0          0          0          0          0          0          0          0          0          0          0
  mcf              :       0.11       0.00          1          1          0          0          0          0          0          0          0          0          0
  minor            :       0.00       0.00          0          0          0          0          0          0          0          0          0          0          0
  mixing           :       0.00       0.00          0          0          0          0          0          0          0          0          0          0          0
  oddcycle         :       0.00       0.00          0          0          0          0          0          0          0          0          0          0          0
  rapidlearning    :       0.36       0.00          0          0          0          0          0          0          0          0          0          0          0
  rlt              :       0.00       0.00         10         10          0          0          0          0          0          0          0          0          0
  zerohalf         :       0.83       0.00         20         20          0          0         25         13          0          1          1          0          0
Cutselectors       :   ExecTime  SetupTime      Calls  RootCalls   Selected     Forced   Filtered  RootSelec   RootForc   RootFilt 
  hybrid           :       0.00       0.00         24         24        122          0        435        122          0        435
Pricers            :   ExecTime  SetupTime      Calls       Vars
  problem variables:       0.00          -          0          0
Branching Rules    :   ExecTime  SetupTime   BranchLP  BranchExt   BranchPS    Cutoffs    DomReds       Cuts      Conss   Children
  allfullstrong    :       0.00       0.00          0          0          0          0          0          0          0          0
  cloud            :       0.00       0.00          0          0          0          0          0          0          0          0
  distribution     :       0.00       0.00          0          0          0          0          0          0          0          0
  fullstrong       :       0.00       0.00          0          0          0          0          0          0          0          0
  inference        :       0.00       0.00          0          0          0          0          0          0          0          0
  leastinf         :       0.00       0.00          0          0          0          0          0          0          0          0
  lookahead        :       0.00       0.00          0          0          0          0          0          0          0          0
  mostinf          :       0.00       0.00          0          0          0          0          0          0          0          0
  multaggr         :       0.00       0.00          0          0          0          0          0          0          0          0
  nodereopt        :       0.00       0.00          0          0          0          0          0          0          0          0
  pscost           :       0.00       0.00          0          0          0          0          0          0          0          0
  random           :       0.00       0.00          0          0          0          0          0          0          0          0
  relpscost        :     293.77       0.00         37          0          0          0        121          0        147          4
  vanillafullstrong:       0.00       0.00          0          0          0          0          0          0          0          0
Primal Heuristics  :   ExecTime  SetupTime      Calls      Found       Best
  LP solutions     :       0.00          -          -          0          0
  relax solutions  :       0.00          -          -          0          0
  pseudo solutions :       0.00          -          -          0          0
  strong branching :       0.00          -          -          0          0
  actconsdiving    :       0.00       0.00          0          0          0
  adaptivediving   :       0.00       0.00          0          0          0
  alns             :       9.04       0.00          1          0          0
  bound            :       0.00       0.00          0          0          0
  clique           :      30.46       0.00          1          0          0
  coefdiving       :       0.00       0.00          0          0          0
  completesol      :       0.00       0.00          0          0          0
  conflictdiving   :      12.62       0.00          1          0          0
  crossover        :       0.00       0.00          0          0          0
  dins             :       0.00       0.00          0          0          0
  distributiondivin:       0.00       0.00          0          0          0
  dps              :       0.00       0.00          0          0          0
  dualval          :       0.00       0.00          0          0          0
  farkasdiving     :       0.00       0.00          0          0          0
  feaspump         :      81.80       0.00          1          0          0
  fixandinfer      :       0.00       0.00          0          0          0
  fracdiving       :       0.00       0.00          0          0          0
  gins             :       0.00       0.00          0          0          0
  guideddiving     :       0.00       0.00          0          0          0
  indicator        :       0.00       0.00          0          0          0
  intdiving        :       0.00       0.00          0          0          0
  intshifting      :       0.00       0.00          0          0          0
  linesearchdiving :       0.00       0.00          0          0          0
  localbranching   :       0.00       0.00          0          0          0
  locks            :      35.39       0.00          1          0          0
  lpface           :       0.00       0.00          0          0          0
  mpec             :       0.00       0.00          0          0          0
  multistart       :       0.00       0.00          0          0          0
  mutation         :       0.00       0.00          0          0          0
  nlpdiving        :       0.00       0.00          0          0          0
  objpscostdiving  :       0.00       0.00          0          0          0
  octane           :       0.00       0.00          0          0          0
  ofins            :       0.00       0.00          0          0          0
  oneopt           :       0.82       0.00          2          0          0
  padm             :       0.00       0.00          0          0          0
  proximity        :       0.00       0.00          0          0          0
  pscostdiving     :       0.00       0.00          0          0          0
  randrounding     :      33.11       0.00         28          0          0
  rens             :       3.89       0.00          1          0          0
  reoptsols        :       0.00       0.00          0          0          0
  repair           :       0.00       0.00          0          0          0
  rins             :       0.00       0.00          0          0          0
  rootsoldiving    :       0.00       0.00          0          0          0
  rounding         :       0.98       0.00         62          0          0
  shiftandpropagate:      21.34       0.00          1          0          0
  shifting         :      10.51       0.00         27         19          2
  simplerounding   :       0.00       0.00          0          0          0
  subnlp           :       0.00       0.00          0          0          0
  trivial          :       0.45       0.00          2          0          0
  trivialnegation  :       0.00       0.00          0          0          0
  trustregion      :       0.00       0.00          0          0          0
  trysol           :       0.00       0.00          0          0          0
  twoopt           :       0.00       0.00          0          0          0
  undercover       :       0.00       0.00          0          0          0
  vbounds          :      16.27       0.00          1          0          0
  veclendiving     :       0.00       0.00          0          0          0
  zeroobj          :       0.00       0.00          0          0          0
  zirounding       :       0.03       0.00          2          0          0
  other solutions  :          -          -          -          0          -
LP                 :       Time      Calls Iterations  Iter/call   Iter/sec  Time-0-It Calls-0-It    ItLimit
  primal LP        :       8.28          3          0       0.00       0.00       8.28          3
  dual LP          :     113.76         71       2225      37.71      19.56      13.78         12
  lex dual LP      :       0.00          0          0       0.00          -
  barrier LP       :       0.00          0          0       0.00          -       0.00          0
  resolve instable :       0.00          0          0       0.00          -
  diving/probing LP:      97.93         31        564      18.19       5.76
  strong branching :     248.60        296      14048      47.46      56.51          -          -          0
    (at root node) :          -         52      11310     217.50          -
  conflict analysis:       8.23         51        499       9.78      60.64
B&B Tree           :
  number of runs   :          1
  nodes            :          5 (2 internal, 3 leaves)
  feasible leaves  :          0
  infeas. leaves   :          3
  objective leaves :          0
  nodes (total)    :          5 (2 internal, 3 leaves)
  nodes left       :          0
  max depth        :          2
  max depth (total):          2
  backtracks       :          0 (0.0%)
  early backtracks :          0 (0.0%)
  nodes exc. ref.  :          0 (0.0%)
  delayed cutoffs  :          0
  repropagations   :          0 (0 domain reductions, 0 cutoffs)
  avg switch length:       2.00
  switching time   :       0.18
Root Node          :
  First LP value   : +3.41000000000000e+02
  First LP Iters   :         14 (0.44 Iter/sec)
  First LP Time    :      31.54
  Final Dual Bound : +3.42854800936768e+02
  Final Root Iters :       2103
  Root LP Estimate : +3.45729802908798e+02
Solution           :
  Solutions found  :         19 (2 improvements)
  First Solution   : +3.74000000000000e+02   (in run 1, after 1 nodes, 491.92 seconds, depth 0, found by <shifting>)
  Gap First Sol.   :       9.68 %
  Gap Last Sol.    :       6.45 %
  Primal Bound     : +3.63000000000000e+02   (in run 1, after 1 nodes, 569.20 seconds, depth 0, found by <shifting>)
  Dual Bound       : +3.63000000000000e+02
  Gap              :       0.00 %
Integrals          :      Total       Avg%
  primal-dual      :   52508.10      52.36
  primal-ref       :          -          - (not evaluated)
  dual-ref         :          -          - (not evaluated)
written solution information to file <results/final_miplib_symretope_if_extended_generating_set_cpx_v802__settings_final_nopeek_norelabel_extend_norestarts__2__mspp16.mps.gz.sol>
@04 1686657632
